7081
1,98,103,82,95,107,5,100,143,97,7,84,8,89,30,96,35,124,93,52,126,33,105,111,79,59,16,133,122,77,134,54,92,90,46,138,109,51,20,110,81,25,141,83,56,146,26,75,18,142,85,65,132,55,58,50,137,102,114,99,108,70,135,86,29,2,19,37,6,28,9,42,120,47,139,40,53,12,24,118,127,69,36,61,11,148,130,17,66,60,140,117,57,39,41,101,116,43,67,131,32,38,23,49,147,144,129,27,31,123,74,13,64,112,136,145,72,14,80,15,78,21,150,115,44,71,106,91,119,68,128,45,4,104,22,125,149,62,3,94,88,121,10,113,63,48,73,76,34,87,1
